c created by edge2cnf
p cnf 500 3100
-1 -2 0
-1 -3 0
-1 -4 0
-1 -5 0
-2 -3 0
-2 -4 0
-2 -5 0
-3 -4 0
-3 -5 0
-4 -5 0
1 2 3 4 5 0
-6 -7 0
-6 -8 0
-6 -9 0
-6 -10 0
-7 -8 0
-7 -9 0
-7 -10 0
-8 -9 0
-8 -10 0
-9 -10 0
6 7 8 9 10 0
-11 -12 0
-11 -13 0
-11 -14 0
-11 -15 0
-12 -13 0
-12 -14 0
-12 -15 0
-13 -14 0
-13 -15 0
-14 -15 0
11 12 13 14 15 0
-16 -17 0
-16 -18 0
-16 -19 0
-16 -20 0
-17 -18 0
-17 -19 0
-17 -20 0
-18 -19 0
-18 -20 0
-19 -20 0
16 17 18 19 20 0
-21 -22 0
-21 -23 0
-21 -24 0
-21 -25 0
-22 -23 0
-22 -24 0
-22 -25 0
-23 -24 0
-23 -25 0
-24 -25 0
21 22 23 24 25 0
-26 -27 0
-26 -28 0
-26 -29 0
-26 -30 0
-27 -28 0
-27 -29 0
-27 -30 0
-28 -29 0
-28 -30 0
-29 -30 0
26 27 28 29 30 0
-31 -32 0
-31 -33 0
-31 -34 0
-31 -35 0
-32 -33 0
-32 -34 0
-32 -35 0
-33 -34 0
-33 -35 0
-34 -35 0
31 32 33 34 35 0
-36 -37 0
-36 -38 0
-36 -39 0
-36 -40 0
-37 -38 0
-37 -39 0
-37 -40 0
-38 -39 0
-38 -40 0
-39 -40 0
36 37 38 39 40 0
-41 -42 0
-41 -43 0
-41 -44 0
-41 -45 0
-42 -43 0
-42 -44 0
-42 -45 0
-43 -44 0
-43 -45 0
-44 -45 0
41 42 43 44 45 0
-46 -47 0
-46 -48 0
-46 -49 0
-46 -50 0
-47 -48 0
-47 -49 0
-47 -50 0
-48 -49 0
-48 -50 0
-49 -50 0
46 47 48 49 50 0
-51 -52 0
-51 -53 0
-51 -54 0
-51 -55 0
-52 -53 0
-52 -54 0
-52 -55 0
-53 -54 0
-53 -55 0
-54 -55 0
51 52 53 54 55 0
-56 -57 0
-56 -58 0
-56 -59 0
-56 -60 0
-57 -58 0
-57 -59 0
-57 -60 0
-58 -59 0
-58 -60 0
-59 -60 0
56 57 58 59 60 0
-61 -62 0
-61 -63 0
-61 -64 0
-61 -65 0
-62 -63 0
-62 -64 0
-62 -65 0
-63 -64 0
-63 -65 0
-64 -65 0
61 62 63 64 65 0
-66 -67 0
-66 -68 0
-66 -69 0
-66 -70 0
-67 -68 0
-67 -69 0
-67 -70 0
-68 -69 0
-68 -70 0
-69 -70 0
66 67 68 69 70 0
-71 -72 0
-71 -73 0
-71 -74 0
-71 -75 0
-72 -73 0
-72 -74 0
-72 -75 0
-73 -74 0
-73 -75 0
-74 -75 0
71 72 73 74 75 0
-76 -77 0
-76 -78 0
-76 -79 0
-76 -80 0
-77 -78 0
-77 -79 0
-77 -80 0
-78 -79 0
-78 -80 0
-79 -80 0
76 77 78 79 80 0
-81 -82 0
-81 -83 0
-81 -84 0
-81 -85 0
-82 -83 0
-82 -84 0
-82 -85 0
-83 -84 0
-83 -85 0
-84 -85 0
81 82 83 84 85 0
-86 -87 0
-86 -88 0
-86 -89 0
-86 -90 0
-87 -88 0
-87 -89 0
-87 -90 0
-88 -89 0
-88 -90 0
-89 -90 0
86 87 88 89 90 0
-91 -92 0
-91 -93 0
-91 -94 0
-91 -95 0
-92 -93 0
-92 -94 0
-92 -95 0
-93 -94 0
-93 -95 0
-94 -95 0
91 92 93 94 95 0
-96 -97 0
-96 -98 0
-96 -99 0
-96 -100 0
-97 -98 0
-97 -99 0
-97 -100 0
-98 -99 0
-98 -100 0
-99 -100 0
96 97 98 99 100 0
-101 -102 0
-101 -103 0
-101 -104 0
-101 -105 0
-102 -103 0
-102 -104 0
-102 -105 0
-103 -104 0
-103 -105 0
-104 -105 0
101 102 103 104 105 0
-106 -107 0
-106 -108 0
-106 -109 0
-106 -110 0
-107 -108 0
-107 -109 0
-107 -110 0
-108 -109 0
-108 -110 0
-109 -110 0
106 107 108 109 110 0
-111 -112 0
-111 -113 0
-111 -114 0
-111 -115 0
-112 -113 0
-112 -114 0
-112 -115 0
-113 -114 0
-113 -115 0
-114 -115 0
111 112 113 114 115 0
-116 -117 0
-116 -118 0
-116 -119 0
-116 -120 0
-117 -118 0
-117 -119 0
-117 -120 0
-118 -119 0
-118 -120 0
-119 -120 0
116 117 118 119 120 0
-121 -122 0
-121 -123 0
-121 -124 0
-121 -125 0
-122 -123 0
-122 -124 0
-122 -125 0
-123 -124 0
-123 -125 0
-124 -125 0
121 122 123 124 125 0
-126 -127 0
-126 -128 0
-126 -129 0
-126 -130 0
-127 -128 0
-127 -129 0
-127 -130 0
-128 -129 0
-128 -130 0
-129 -130 0
126 127 128 129 130 0
-131 -132 0
-131 -133 0
-131 -134 0
-131 -135 0
-132 -133 0
-132 -134 0
-132 -135 0
-133 -134 0
-133 -135 0
-134 -135 0
131 132 133 134 135 0
-136 -137 0
-136 -138 0
-136 -139 0
-136 -140 0
-137 -138 0
-137 -139 0
-137 -140 0
-138 -139 0
-138 -140 0
-139 -140 0
136 137 138 139 140 0
-141 -142 0
-141 -143 0
-141 -144 0
-141 -145 0
-142 -143 0
-142 -144 0
-142 -145 0
-143 -144 0
-143 -145 0
-144 -145 0
141 142 143 144 145 0
-146 -147 0
-146 -148 0
-146 -149 0
-146 -150 0
-147 -148 0
-147 -149 0
-147 -150 0
-148 -149 0
-148 -150 0
-149 -150 0
146 147 148 149 150 0
-151 -152 0
-151 -153 0
-151 -154 0
-151 -155 0
-152 -153 0
-152 -154 0
-152 -155 0
-153 -154 0
-153 -155 0
-154 -155 0
151 152 153 154 155 0
-156 -157 0
-156 -158 0
-156 -159 0
-156 -160 0
-157 -158 0
-157 -159 0
-157 -160 0
-158 -159 0
-158 -160 0
-159 -160 0
156 157 158 159 160 0
-161 -162 0
-161 -163 0
-161 -164 0
-161 -165 0
-162 -163 0
-162 -164 0
-162 -165 0
-163 -164 0
-163 -165 0
-164 -165 0
161 162 163 164 165 0
-166 -167 0
-166 -168 0
-166 -169 0
-166 -170 0
-167 -168 0
-167 -169 0
-167 -170 0
-168 -169 0
-168 -170 0
-169 -170 0
166 167 168 169 170 0
-171 -172 0
-171 -173 0
-171 -174 0
-171 -175 0
-172 -173 0
-172 -174 0
-172 -175 0
-173 -174 0
-173 -175 0
-174 -175 0
171 172 173 174 175 0
-176 -177 0
-176 -178 0
-176 -179 0
-176 -180 0
-177 -178 0
-177 -179 0
-177 -180 0
-178 -179 0
-178 -180 0
-179 -180 0
176 177 178 179 180 0
-181 -182 0
-181 -183 0
-181 -184 0
-181 -185 0
-182 -183 0
-182 -184 0
-182 -185 0
-183 -184 0
-183 -185 0
-184 -185 0
181 182 183 184 185 0
-186 -187 0
-186 -188 0
-186 -189 0
-186 -190 0
-187 -188 0
-187 -189 0
-187 -190 0
-188 -189 0
-188 -190 0
-189 -190 0
186 187 188 189 190 0
-191 -192 0
-191 -193 0
-191 -194 0
-191 -195 0
-192 -193 0
-192 -194 0
-192 -195 0
-193 -194 0
-193 -195 0
-194 -195 0
191 192 193 194 195 0
-196 -197 0
-196 -198 0
-196 -199 0
-196 -200 0
-197 -198 0
-197 -199 0
-197 -200 0
-198 -199 0
-198 -200 0
-199 -200 0
196 197 198 199 200 0
-201 -202 0
-201 -203 0
-201 -204 0
-201 -205 0
-202 -203 0
-202 -204 0
-202 -205 0
-203 -204 0
-203 -205 0
-204 -205 0
201 202 203 204 205 0
-206 -207 0
-206 -208 0
-206 -209 0
-206 -210 0
-207 -208 0
-207 -209 0
-207 -210 0
-208 -209 0
-208 -210 0
-209 -210 0
206 207 208 209 210 0
-211 -212 0
-211 -213 0
-211 -214 0
-211 -215 0
-212 -213 0
-212 -214 0
-212 -215 0
-213 -214 0
-213 -215 0
-214 -215 0
211 212 213 214 215 0
-216 -217 0
-216 -218 0
-216 -219 0
-216 -220 0
-217 -218 0
-217 -219 0
-217 -220 0
-218 -219 0
-218 -220 0
-219 -220 0
216 217 218 219 220 0
-221 -222 0
-221 -223 0
-221 -224 0
-221 -225 0
-222 -223 0
-222 -224 0
-222 -225 0
-223 -224 0
-223 -225 0
-224 -225 0
221 222 223 224 225 0
-226 -227 0
-226 -228 0
-226 -229 0
-226 -230 0
-227 -228 0
-227 -229 0
-227 -230 0
-228 -229 0
-228 -230 0
-229 -230 0
226 227 228 229 230 0
-231 -232 0
-231 -233 0
-231 -234 0
-231 -235 0
-232 -233 0
-232 -234 0
-232 -235 0
-233 -234 0
-233 -235 0
-234 -235 0
231 232 233 234 235 0
-236 -237 0
-236 -238 0
-236 -239 0
-236 -240 0
-237 -238 0
-237 -239 0
-237 -240 0
-238 -239 0
-238 -240 0
-239 -240 0
236 237 238 239 240 0
-241 -242 0
-241 -243 0
-241 -244 0
-241 -245 0
-242 -243 0
-242 -244 0
-242 -245 0
-243 -244 0
-243 -245 0
-244 -245 0
241 242 243 244 245 0
-246 -247 0
-246 -248 0
-246 -249 0
-246 -250 0
-247 -248 0
-247 -249 0
-247 -250 0
-248 -249 0
-248 -250 0
-249 -250 0
246 247 248 249 250 0
-251 -252 0
-251 -253 0
-251 -254 0
-251 -255 0
-252 -253 0
-252 -254 0
-252 -255 0
-253 -254 0
-253 -255 0
-254 -255 0
251 252 253 254 255 0
-256 -257 0
-256 -258 0
-256 -259 0
-256 -260 0
-257 -258 0
-257 -259 0
-257 -260 0
-258 -259 0
-258 -260 0
-259 -260 0
256 257 258 259 260 0
-261 -262 0
-261 -263 0
-261 -264 0
-261 -265 0
-262 -263 0
-262 -264 0
-262 -265 0
-263 -264 0
-263 -265 0
-264 -265 0
261 262 263 264 265 0
-266 -267 0
-266 -268 0
-266 -269 0
-266 -270 0
-267 -268 0
-267 -269 0
-267 -270 0
-268 -269 0
-268 -270 0
-269 -270 0
266 267 268 269 270 0
-271 -272 0
-271 -273 0
-271 -274 0
-271 -275 0
-272 -273 0
-272 -274 0
-272 -275 0
-273 -274 0
-273 -275 0
-274 -275 0
271 272 273 274 275 0
-276 -277 0
-276 -278 0
-276 -279 0
-276 -280 0
-277 -278 0
-277 -279 0
-277 -280 0
-278 -279 0
-278 -280 0
-279 -280 0
276 277 278 279 280 0
-281 -282 0
-281 -283 0
-281 -284 0
-281 -285 0
-282 -283 0
-282 -284 0
-282 -285 0
-283 -284 0
-283 -285 0
-284 -285 0
281 282 283 284 285 0
-286 -287 0
-286 -288 0
-286 -289 0
-286 -290 0
-287 -288 0
-287 -289 0
-287 -290 0
-288 -289 0
-288 -290 0
-289 -290 0
286 287 288 289 290 0
-291 -292 0
-291 -293 0
-291 -294 0
-291 -295 0
-292 -293 0
-292 -294 0
-292 -295 0
-293 -294 0
-293 -295 0
-294 -295 0
291 292 293 294 295 0
-296 -297 0
-296 -298 0
-296 -299 0
-296 -300 0
-297 -298 0
-297 -299 0
-297 -300 0
-298 -299 0
-298 -300 0
-299 -300 0
296 297 298 299 300 0
-301 -302 0
-301 -303 0
-301 -304 0
-301 -305 0
-302 -303 0
-302 -304 0
-302 -305 0
-303 -304 0
-303 -305 0
-304 -305 0
301 302 303 304 305 0
-306 -307 0
-306 -308 0
-306 -309 0
-306 -310 0
-307 -308 0
-307 -309 0
-307 -310 0
-308 -309 0
-308 -310 0
-309 -310 0
306 307 308 309 310 0
-311 -312 0
-311 -313 0
-311 -314 0
-311 -315 0
-312 -313 0
-312 -314 0
-312 -315 0
-313 -314 0
-313 -315 0
-314 -315 0
311 312 313 314 315 0
-316 -317 0
-316 -318 0
-316 -319 0
-316 -320 0
-317 -318 0
-317 -319 0
-317 -320 0
-318 -319 0
-318 -320 0
-319 -320 0
316 317 318 319 320 0
-321 -322 0
-321 -323 0
-321 -324 0
-321 -325 0
-322 -323 0
-322 -324 0
-322 -325 0
-323 -324 0
-323 -325 0
-324 -325 0
321 322 323 324 325 0
-326 -327 0
-326 -328 0
-326 -329 0
-326 -330 0
-327 -328 0
-327 -329 0
-327 -330 0
-328 -329 0
-328 -330 0
-329 -330 0
326 327 328 329 330 0
-331 -332 0
-331 -333 0
-331 -334 0
-331 -335 0
-332 -333 0
-332 -334 0
-332 -335 0
-333 -334 0
-333 -335 0
-334 -335 0
331 332 333 334 335 0
-336 -337 0
-336 -338 0
-336 -339 0
-336 -340 0
-337 -338 0
-337 -339 0
-337 -340 0
-338 -339 0
-338 -340 0
-339 -340 0
336 337 338 339 340 0
-341 -342 0
-341 -343 0
-341 -344 0
-341 -345 0
-342 -343 0
-342 -344 0
-342 -345 0
-343 -344 0
-343 -345 0
-344 -345 0
341 342 343 344 345 0
-346 -347 0
-346 -348 0
-346 -349 0
-346 -350 0
-347 -348 0
-347 -349 0
-347 -350 0
-348 -349 0
-348 -350 0
-349 -350 0
346 347 348 349 350 0
-351 -352 0
-351 -353 0
-351 -354 0
-351 -355 0
-352 -353 0
-352 -354 0
-352 -355 0
-353 -354 0
-353 -355 0
-354 -355 0
351 352 353 354 355 0
-356 -357 0
-356 -358 0
-356 -359 0
-356 -360 0
-357 -358 0
-357 -359 0
-357 -360 0
-358 -359 0
-358 -360 0
-359 -360 0
356 357 358 359 360 0
-361 -362 0
-361 -363 0
-361 -364 0
-361 -365 0
-362 -363 0
-362 -364 0
-362 -365 0
-363 -364 0
-363 -365 0
-364 -365 0
361 362 363 364 365 0
-366 -367 0
-366 -368 0
-366 -369 0
-366 -370 0
-367 -368 0
-367 -369 0
-367 -370 0
-368 -369 0
-368 -370 0
-369 -370 0
366 367 368 369 370 0
-371 -372 0
-371 -373 0
-371 -374 0
-371 -375 0
-372 -373 0
-372 -374 0
-372 -375 0
-373 -374 0
-373 -375 0
-374 -375 0
371 372 373 374 375 0
-376 -377 0
-376 -378 0
-376 -379 0
-376 -380 0
-377 -378 0
-377 -379 0
-377 -380 0
-378 -379 0
-378 -380 0
-379 -380 0
376 377 378 379 380 0
-381 -382 0
-381 -383 0
-381 -384 0
-381 -385 0
-382 -383 0
-382 -384 0
-382 -385 0
-383 -384 0
-383 -385 0
-384 -385 0
381 382 383 384 385 0
-386 -387 0
-386 -388 0
-386 -389 0
-386 -390 0
-387 -388 0
-387 -389 0
-387 -390 0
-388 -389 0
-388 -390 0
-389 -390 0
386 387 388 389 390 0
-391 -392 0
-391 -393 0
-391 -394 0
-391 -395 0
-392 -393 0
-392 -394 0
-392 -395 0
-393 -394 0
-393 -395 0
-394 -395 0
391 392 393 394 395 0
-396 -397 0
-396 -398 0
-396 -399 0
-396 -400 0
-397 -398 0
-397 -399 0
-397 -400 0
-398 -399 0
-398 -400 0
-399 -400 0
396 397 398 399 400 0
-401 -402 0
-401 -403 0
-401 -404 0
-401 -405 0
-402 -403 0
-402 -404 0
-402 -405 0
-403 -404 0
-403 -405 0
-404 -405 0
401 402 403 404 405 0
-406 -407 0
-406 -408 0
-406 -409 0
-406 -410 0
-407 -408 0
-407 -409 0
-407 -410 0
-408 -409 0
-408 -410 0
-409 -410 0
406 407 408 409 410 0
-411 -412 0
-411 -413 0
-411 -414 0
-411 -415 0
-412 -413 0
-412 -414 0
-412 -415 0
-413 -414 0
-413 -415 0
-414 -415 0
411 412 413 414 415 0
-416 -417 0
-416 -418 0
-416 -419 0
-416 -420 0
-417 -418 0
-417 -419 0
-417 -420 0
-418 -419 0
-418 -420 0
-419 -420 0
416 417 418 419 420 0
-421 -422 0
-421 -423 0
-421 -424 0
-421 -425 0
-422 -423 0
-422 -424 0
-422 -425 0
-423 -424 0
-423 -425 0
-424 -425 0
421 422 423 424 425 0
-426 -427 0
-426 -428 0
-426 -429 0
-426 -430 0
-427 -428 0
-427 -429 0
-427 -430 0
-428 -429 0
-428 -430 0
-429 -430 0
426 427 428 429 430 0
-431 -432 0
-431 -433 0
-431 -434 0
-431 -435 0
-432 -433 0
-432 -434 0
-432 -435 0
-433 -434 0
-433 -435 0
-434 -435 0
431 432 433 434 435 0
-436 -437 0
-436 -438 0
-436 -439 0
-436 -440 0
-437 -438 0
-437 -439 0
-437 -440 0
-438 -439 0
-438 -440 0
-439 -440 0
436 437 438 439 440 0
-441 -442 0
-441 -443 0
-441 -444 0
-441 -445 0
-442 -443 0
-442 -444 0
-442 -445 0
-443 -444 0
-443 -445 0
-444 -445 0
441 442 443 444 445 0
-446 -447 0
-446 -448 0
-446 -449 0
-446 -450 0
-447 -448 0
-447 -449 0
-447 -450 0
-448 -449 0
-448 -450 0
-449 -450 0
446 447 448 449 450 0
-451 -452 0
-451 -453 0
-451 -454 0
-451 -455 0
-452 -453 0
-452 -454 0
-452 -455 0
-453 -454 0
-453 -455 0
-454 -455 0
451 452 453 454 455 0
-456 -457 0
-456 -458 0
-456 -459 0
-456 -460 0
-457 -458 0
-457 -459 0
-457 -460 0
-458 -459 0
-458 -460 0
-459 -460 0
456 457 458 459 460 0
-461 -462 0
-461 -463 0
-461 -464 0
-461 -465 0
-462 -463 0
-462 -464 0
-462 -465 0
-463 -464 0
-463 -465 0
-464 -465 0
461 462 463 464 465 0
-466 -467 0
-466 -468 0
-466 -469 0
-466 -470 0
-467 -468 0
-467 -469 0
-467 -470 0
-468 -469 0
-468 -470 0
-469 -470 0
466 467 468 469 470 0
-471 -472 0
-471 -473 0
-471 -474 0
-471 -475 0
-472 -473 0
-472 -474 0
-472 -475 0
-473 -474 0
-473 -475 0
-474 -475 0
471 472 473 474 475 0
-476 -477 0
-476 -478 0
-476 -479 0
-476 -480 0
-477 -478 0
-477 -479 0
-477 -480 0
-478 -479 0
-478 -480 0
-479 -480 0
476 477 478 479 480 0
-481 -482 0
-481 -483 0
-481 -484 0
-481 -485 0
-482 -483 0
-482 -484 0
-482 -485 0
-483 -484 0
-483 -485 0
-484 -485 0
481 482 483 484 485 0
-486 -487 0
-486 -488 0
-486 -489 0
-486 -490 0
-487 -488 0
-487 -489 0
-487 -490 0
-488 -489 0
-488 -490 0
-489 -490 0
486 487 488 489 490 0
-491 -492 0
-491 -493 0
-491 -494 0
-491 -495 0
-492 -493 0
-492 -494 0
-492 -495 0
-493 -494 0
-493 -495 0
-494 -495 0
491 492 493 494 495 0
-496 -497 0
-496 -498 0
-496 -499 0
-496 -500 0
-497 -498 0
-497 -499 0
-497 -500 0
-498 -499 0
-498 -500 0
-499 -500 0
496 497 498 499 500 0
-1 -6 0
-2 -7 0
-3 -8 0
-4 -9 0
-5 -10 0
-1 -21 0
-2 -22 0
-3 -23 0
-4 -24 0
-5 -25 0
-16 -26 0
-17 -27 0
-18 -28 0
-19 -29 0
-20 -30 0
-26 -46 0
-27 -47 0
-28 -48 0
-29 -49 0
-30 -50 0
-51 -71 0
-52 -72 0
-53 -73 0
-54 -74 0
-55 -75 0
-81 -101 0
-82 -102 0
-83 -103 0
-84 -104 0
-85 -105 0
-101 -116 0
-102 -117 0
-103 -118 0
-104 -119 0
-105 -120 0
-106 -121 0
-107 -122 0
-108 -123 0
-109 -124 0
-110 -125 0
-126 -141 0
-127 -142 0
-128 -143 0
-129 -144 0
-130 -145 0
-166 -176 0
-167 -177 0
-168 -178 0
-169 -179 0
-170 -180 0
-181 -191 0
-182 -192 0
-183 -193 0
-184 -194 0
-185 -195 0
-201 -221 0
-202 -222 0
-203 -223 0
-204 -224 0
-205 -225 0
-226 -241 0
-227 -242 0
-228 -243 0
-229 -244 0
-230 -245 0
-236 -241 0
-237 -242 0
-238 -243 0
-239 -244 0
-240 -245 0
-271 -291 0
-272 -292 0
-273 -293 0
-274 -294 0
-275 -295 0
-281 -301 0
-282 -302 0
-283 -303 0
-284 -304 0
-285 -305 0
-306 -316 0
-307 -317 0
-308 -318 0
-309 -319 0
-310 -320 0
-321 -341 0
-322 -342 0
-323 -343 0
-324 -344 0
-325 -345 0
-326 -346 0
-327 -347 0
-328 -348 0
-329 -349 0
-330 -350 0
-346 -366 0
-347 -367 0
-348 -368 0
-349 -369 0
-350 -370 0
-356 -361 0
-357 -362 0
-358 -363 0
-359 -364 0
-360 -365 0
-381 -396 0
-382 -397 0
-383 -398 0
-384 -399 0
-385 -400 0
-396 -411 0
-397 -412 0
-398 -413 0
-399 -414 0
-400 -415 0
-406 -416 0
-407 -417 0
-408 -418 0
-409 -419 0
-410 -420 0
-411 -431 0
-412 -432 0
-413 -433 0
-414 -434 0
-415 -435 0
-426 -431 0
-427 -432 0
-428 -433 0
-429 -434 0
-430 -435 0
-441 -456 0
-442 -457 0
-443 -458 0
-444 -459 0
-445 -460 0
-476 -486 0
-477 -487 0
-478 -488 0
-479 -489 0
-480 -490 0
-481 -491 0
-482 -492 0
-483 -493 0
-484 -494 0
-485 -495 0
-481 -496 0
-482 -497 0
-483 -498 0
-484 -499 0
-485 -500 0
-11 -491 0
-12 -492 0
-13 -493 0
-14 -494 0
-15 -495 0
-1 -46 0
-2 -47 0
-3 -48 0
-4 -49 0
-5 -50 0
-1 -126 0
-2 -127 0
-3 -128 0
-4 -129 0
-5 -130 0
-1 -136 0
-2 -137 0
-3 -138 0
-4 -139 0
-5 -140 0
-1 -166 0
-2 -167 0
-3 -168 0
-4 -169 0
-5 -170 0
-1 -281 0
-2 -282 0
-3 -283 0
-4 -284 0
-5 -285 0
-1 -296 0
-2 -297 0
-3 -298 0
-4 -299 0
-5 -300 0
-1 -321 0
-2 -322 0
-3 -323 0
-4 -324 0
-5 -325 0
-1 -326 0
-2 -327 0
-3 -328 0
-4 -329 0
-5 -330 0
-1 -416 0
-2 -417 0
-3 -418 0
-4 -419 0
-5 -420 0
-1 -446 0
-2 -447 0
-3 -448 0
-4 -449 0
-5 -450 0
-6 -126 0
-7 -127 0
-8 -128 0
-9 -129 0
-10 -130 0
-6 -166 0
-7 -167 0
-8 -168 0
-9 -169 0
-10 -170 0
-6 -306 0
-7 -307 0
-8 -308 0
-9 -309 0
-10 -310 0
-6 -341 0
-7 -342 0
-8 -343 0
-9 -344 0
-10 -345 0
-6 -441 0
-7 -442 0
-8 -443 0
-9 -444 0
-10 -445 0
-11 -126 0
-12 -127 0
-13 -128 0
-14 -129 0
-15 -130 0
-11 -176 0
-12 -177 0
-13 -178 0
-14 -179 0
-15 -180 0
-11 -191 0
-12 -192 0
-13 -193 0
-14 -194 0
-15 -195 0
-11 -296 0
-12 -297 0
-13 -298 0
-14 -299 0
-15 -300 0
-11 -316 0
-12 -317 0
-13 -318 0
-14 -319 0
-15 -320 0
-11 -386 0
-12 -387 0
-13 -388 0
-14 -389 0
-15 -390 0
-11 -441 0
-12 -442 0
-13 -443 0
-14 -444 0
-15 -445 0
-16 -171 0
-17 -172 0
-18 -173 0
-19 -174 0
-20 -175 0
-16 -241 0
-17 -242 0
-18 -243 0
-19 -244 0
-20 -245 0
-16 -266 0
-17 -267 0
-18 -268 0
-19 -269 0
-20 -270 0
-16 -296 0
-17 -297 0
-18 -298 0
-19 -299 0
-20 -300 0
-16 -306 0
-17 -307 0
-18 -308 0
-19 -309 0
-20 -310 0
-16 -361 0
-17 -362 0
-18 -363 0
-19 -364 0
-20 -365 0
-16 -366 0
-17 -367 0
-18 -368 0
-19 -369 0
-20 -370 0
-16 -391 0
-17 -392 0
-18 -393 0
-19 -394 0
-20 -395 0
-16 -451 0
-17 -452 0
-18 -453 0
-19 -454 0
-20 -455 0
-16 -481 0
-17 -482 0
-18 -483 0
-19 -484 0
-20 -485 0
-21 -176 0
-22 -177 0
-23 -178 0
-24 -179 0
-25 -180 0
-21 -251 0
-22 -252 0
-23 -253 0
-24 -254 0
-25 -255 0
-21 -351 0
-22 -352 0
-23 -353 0
-24 -354 0
-25 -355 0
-21 -371 0
-22 -372 0
-23 -373 0
-24 -374 0
-25 -375 0
-21 -451 0
-22 -452 0
-23 -453 0
-24 -454 0
-25 -455 0
-26 -251 0
-27 -252 0
-28 -253 0
-29 -254 0
-30 -255 0
-26 -276 0
-27 -277 0
-28 -278 0
-29 -279 0
-30 -280 0
-26 -321 0
-27 -322 0
-28 -323 0
-29 -324 0
-30 -325 0
-26 -326 0
-27 -327 0
-28 -328 0
-29 -329 0
-30 -330 0
-26 -371 0
-27 -372 0
-28 -373 0
-29 -374 0
-30 -375 0
-26 -411 0
-27 -412 0
-28 -413 0
-29 -414 0
-30 -415 0
-26 -431 0
-27 -432 0
-28 -433 0
-29 -434 0
-30 -435 0
-26 -451 0
-27 -452 0
-28 -453 0
-29 -454 0
-30 -455 0
-26 -496 0
-27 -497 0
-28 -498 0
-29 -499 0
-30 -500 0
-31 -96 0
-32 -97 0
-33 -98 0
-34 -99 0
-35 -100 0
-31 -326 0
-32 -327 0
-33 -328 0
-34 -329 0
-35 -330 0
-31 -411 0
-32 -412 0
-33 -413 0
-34 -414 0
-35 -415 0
-31 -456 0
-32 -457 0
-33 -458 0
-34 -459 0
-35 -460 0
-36 -131 0
-37 -132 0
-38 -133 0
-39 -134 0
-40 -135 0
-36 -141 0
-37 -142 0
-38 -143 0
-39 -144 0
-40 -145 0
-36 -186 0
-37 -187 0
-38 -188 0
-39 -189 0
-40 -190 0
-36 -216 0
-37 -217 0
-38 -218 0
-39 -219 0
-40 -220 0
-36 -236 0
-37 -237 0
-38 -238 0
-39 -239 0
-40 -240 0
-36 -276 0
-37 -277 0
-38 -278 0
-39 -279 0
-40 -280 0
-36 -321 0
-37 -322 0
-38 -323 0
-39 -324 0
-40 -325 0
-36 -371 0
-37 -372 0
-38 -373 0
-39 -374 0
-40 -375 0
-36 -381 0
-37 -382 0
-38 -383 0
-39 -384 0
-40 -385 0
-36 -496 0
-37 -497 0
-38 -498 0
-39 -499 0
-40 -500 0
-41 -91 0
-42 -92 0
-43 -93 0
-44 -94 0
-45 -95 0
-41 -106 0
-42 -107 0
-43 -108 0
-44 -109 0
-45 -110 0
-41 -161 0
-42 -162 0
-43 -163 0
-44 -164 0
-45 -165 0
-41 -241 0
-42 -242 0
-43 -243 0
-44 -244 0
-45 -245 0
-41 -426 0
-42 -427 0
-43 -428 0
-44 -429 0
-45 -430 0
-41 -496 0
-42 -497 0
-43 -498 0
-44 -499 0
-45 -500 0
-46 -251 0
-47 -252 0
-48 -253 0
-49 -254 0
-50 -255 0
-46 -286 0
-47 -287 0
-48 -288 0
-49 -289 0
-50 -290 0
-46 -421 0
-47 -422 0
-48 -423 0
-49 -424 0
-50 -425 0
-51 -166 0
-52 -167 0
-53 -168 0
-54 -169 0
-55 -170 0
-51 -181 0
-52 -182 0
-53 -183 0
-54 -184 0
-55 -185 0
-51 -201 0
-52 -202 0
-53 -203 0
-54 -204 0
-55 -205 0
-51 -271 0
-52 -272 0
-53 -273 0
-54 -274 0
-55 -275 0
-51 -356 0
-52 -357 0
-53 -358 0
-54 -359 0
-55 -360 0
-51 -391 0
-52 -392 0
-53 -393 0
-54 -394 0
-55 -395 0
-56 -81 0
-57 -82 0
-58 -83 0
-59 -84 0
-60 -85 0
-56 -96 0
-57 -97 0
-58 -98 0
-59 -99 0
-60 -100 0
-56 -126 0
-57 -127 0
-58 -128 0
-59 -129 0
-60 -130 0
-56 -251 0
-57 -252 0
-58 -253 0
-59 -254 0
-60 -255 0
-56 -271 0
-57 -272 0
-58 -273 0
-59 -274 0
-60 -275 0
-56 -326 0
-57 -327 0
-58 -328 0
-59 -329 0
-60 -330 0
-56 -331 0
-57 -332 0
-58 -333 0
-59 -334 0
-60 -335 0
-56 -336 0
-57 -337 0
-58 -338 0
-59 -339 0
-60 -340 0
-56 -346 0
-57 -347 0
-58 -348 0
-59 -349 0
-60 -350 0
-56 -356 0
-57 -357 0
-58 -358 0
-59 -359 0
-60 -360 0
-56 -391 0
-57 -392 0
-58 -393 0
-59 -394 0
-60 -395 0
-56 -431 0
-57 -432 0
-58 -433 0
-59 -434 0
-60 -435 0
-56 -441 0
-57 -442 0
-58 -443 0
-59 -444 0
-60 -445 0
-56 -451 0
-57 -452 0
-58 -453 0
-59 -454 0
-60 -455 0
-56 -466 0
-57 -467 0
-58 -468 0
-59 -469 0
-60 -470 0
-61 -106 0
-62 -107 0
-63 -108 0
-64 -109 0
-65 -110 0
-61 -191 0
-62 -192 0
-63 -193 0
-64 -194 0
-65 -195 0
-61 -221 0
-62 -222 0
-63 -223 0
-64 -224 0
-65 -225 0
-61 -246 0
-62 -247 0
-63 -248 0
-64 -249 0
-65 -250 0
-61 -256 0
-62 -257 0
-63 -258 0
-64 -259 0
-65 -260 0
-61 -271 0
-62 -272 0
-63 -273 0
-64 -274 0
-65 -275 0
-61 -301 0
-62 -302 0
-63 -303 0
-64 -304 0
-65 -305 0
-61 -311 0
-62 -312 0
-63 -313 0
-64 -314 0
-65 -315 0
-61 -321 0
-62 -322 0
-63 -323 0
-64 -324 0
-65 -325 0
-61 -421 0
-62 -422 0
-63 -423 0
-64 -424 0
-65 -425 0
-61 -466 0
-62 -467 0
-63 -468 0
-64 -469 0
-65 -470 0
-66 -131 0
-67 -132 0
-68 -133 0
-69 -134 0
-70 -135 0
-66 -161 0
-67 -162 0
-68 -163 0
-69 -164 0
-70 -165 0
-66 -211 0
-67 -212 0
-68 -213 0
-69 -214 0
-70 -215 0
-66 -236 0
-67 -237 0
-68 -238 0
-69 -239 0
-70 -240 0
-66 -291 0
-67 -292 0
-68 -293 0
-69 -294 0
-70 -295 0
-66 -301 0
-67 -302 0
-68 -303 0
-69 -304 0
-70 -305 0
-66 -461 0
-67 -462 0
-68 -463 0
-69 -464 0
-70 -465 0
-71 -181 0
-72 -182 0
-73 -183 0
-74 -184 0
-75 -185 0
-71 -201 0
-72 -202 0
-73 -203 0
-74 -204 0
-75 -205 0
-71 -286 0
-72 -287 0
-73 -288 0
-74 -289 0
-75 -290 0
-71 -311 0
-72 -312 0
-73 -313 0
-74 -314 0
-75 -315 0
-71 -391 0
-72 -392 0
-73 -393 0
-74 -394 0
-75 -395 0
-71 -416 0
-72 -417 0
-73 -418 0
-74 -419 0
-75 -420 0
-76 -121 0
-77 -122 0
-78 -123 0
-79 -124 0
-80 -125 0
-76 -171 0
-77 -172 0
-78 -173 0
-79 -174 0
-80 -175 0
-76 -176 0
-77 -177 0
-78 -178 0
-79 -179 0
-80 -180 0
-76 -196 0
-77 -197 0
-78 -198 0
-79 -199 0
-80 -200 0
-76 -201 0
-77 -202 0
-78 -203 0
-79 -204 0
-80 -205 0
-76 -301 0
-77 -302 0
-78 -303 0
-79 -304 0
-80 -305 0
-76 -346 0
-77 -347 0
-78 -348 0
-79 -349 0
-80 -350 0
-76 -456 0
-77 -457 0
-78 -458 0
-79 -459 0
-80 -460 0
-81 -131 0
-82 -132 0
-83 -133 0
-84 -134 0
-85 -135 0
-81 -146 0
-82 -147 0
-83 -148 0
-84 -149 0
-85 -150 0
-81 -196 0
-82 -197 0
-83 -198 0
-84 -199 0
-85 -200 0
-81 -226 0
-82 -227 0
-83 -228 0
-84 -229 0
-85 -230 0
-81 -256 0
-82 -257 0
-83 -258 0
-84 -259 0
-85 -260 0
-81 -276 0
-82 -277 0
-83 -278 0
-84 -279 0
-85 -280 0
-81 -341 0
-82 -342 0
-83 -343 0
-84 -344 0
-85 -345 0
-81 -356 0
-82 -357 0
-83 -358 0
-84 -359 0
-85 -360 0
-81 -361 0
-82 -362 0
-83 -363 0
-84 -364 0
-85 -365 0
-81 -471 0
-82 -472 0
-83 -473 0
-84 -474 0
-85 -475 0
-86 -116 0
-87 -117 0
-88 -118 0
-89 -119 0
-90 -120 0
-86 -286 0
-87 -287 0
-88 -288 0
-89 -289 0
-90 -290 0
-86 -301 0
-87 -302 0
-88 -303 0
-89 -304 0
-90 -305 0
-86 -316 0
-87 -317 0
-88 -318 0
-89 -319 0
-90 -320 0
-86 -391 0
-87 -392 0
-88 -393 0
-89 -394 0
-90 -395 0
-86 -446 0
-87 -447 0
-88 -448 0
-89 -449 0
-90 -450 0
-86 -491 0
-87 -492 0
-88 -493 0
-89 -494 0
-90 -495 0
-91 -351 0
-92 -352 0
-93 -353 0
-94 -354 0
-95 -355 0
-91 -421 0
-92 -422 0
-93 -423 0
-94 -424 0
-95 -425 0
-96 -121 0
-97 -122 0
-98 -123 0
-99 -124 0
-100 -125 0
-96 -186 0
-97 -187 0
-98 -188 0
-99 -189 0
-100 -190 0
-96 -216 0
-97 -217 0
-98 -218 0
-99 -219 0
-100 -220 0
-96 -246 0
-97 -247 0
-98 -248 0
-99 -249 0
-100 -250 0
-96 -306 0
-97 -307 0
-98 -308 0
-99 -309 0
-100 -310 0
-96 -336 0
-97 -337 0
-98 -338 0
-99 -339 0
-100 -340 0
-96 -366 0
-97 -367 0
-98 -368 0
-99 -369 0
-100 -370 0
-96 -481 0
-97 -482 0
-98 -483 0
-99 -484 0
-100 -485 0
-101 -161 0
-102 -162 0
-103 -163 0
-104 -164 0
-105 -165 0
-101 -196 0
-102 -197 0
-103 -198 0
-104 -199 0
-105 -200 0
-101 -241 0
-102 -242 0
-103 -243 0
-104 -244 0
-105 -245 0
-101 -321 0
-102 -322 0
-103 -323 0
-104 -324 0
-105 -325 0
-106 -306 0
-107 -307 0
-108 -308 0
-109 -309 0
-110 -310 0
-106 -346 0
-107 -347 0
-108 -348 0
-109 -349 0
-110 -350 0
-106 -411 0
-107 -412 0
-108 -413 0
-109 -414 0
-110 -415 0
-106 -416 0
-107 -417 0
-108 -418 0
-109 -419 0
-110 -420 0
-106 -461 0
-107 -462 0
-108 -463 0
-109 -464 0
-110 -465 0
-111 -136 0
-112 -137 0
-113 -138 0
-114 -139 0
-115 -140 0
-111 -231 0
-112 -232 0
-113 -233 0
-114 -234 0
-115 -235 0
-111 -261 0
-112 -262 0
-113 -263 0
-114 -264 0
-115 -265 0
-111 -316 0
-112 -317 0
-113 -318 0
-114 -319 0
-115 -320 0
-111 -356 0
-112 -357 0
-113 -358 0
-114 -359 0
-115 -360 0
-111 -426 0
-112 -427 0
-113 -428 0
-114 -429 0
-115 -430 0
-116 -206 0
-117 -207 0
-118 -208 0
-119 -209 0
-120 -210 0
-116 -226 0
-117 -227 0
-118 -228 0
-119 -229 0
-120 -230 0
-116 -291 0
-117 -292 0
-118 -293 0
-119 -294 0
-120 -295 0
-116 -311 0
-117 -312 0
-118 -313 0
-119 -314 0
-120 -315 0
-116 -391 0
-117 -392 0
-118 -393 0
-119 -394 0
-120 -395 0
-121 -281 0
-122 -282 0
-123 -283 0
-124 -284 0
-125 -285 0
-121 -291 0
-122 -292 0
-123 -293 0
-124 -294 0
-125 -295 0
-121 -421 0
-122 -422 0
-123 -423 0
-124 -424 0
-125 -425 0
-121 -426 0
-122 -427 0
-123 -428 0
-124 -429 0
-125 -430 0
-126 -246 0
-127 -247 0
-128 -248 0
-129 -249 0
-130 -250 0
-126 -276 0
-127 -277 0
-128 -278 0
-129 -279 0
-130 -280 0
-126 -341 0
-127 -342 0
-128 -343 0
-129 -344 0
-130 -345 0
-131 -281 0
-132 -282 0
-133 -283 0
-134 -284 0
-135 -285 0
-131 -356 0
-132 -357 0
-133 -358 0
-134 -359 0
-135 -360 0
-131 -361 0
-132 -362 0
-133 -363 0
-134 -364 0
-135 -365 0
-131 -391 0
-132 -392 0
-133 -393 0
-134 -394 0
-135 -395 0
-141 -181 0
-142 -182 0
-143 -183 0
-144 -184 0
-145 -185 0
-141 -241 0
-142 -242 0
-143 -243 0
-144 -244 0
-145 -245 0
-141 -261 0
-142 -262 0
-143 -263 0
-144 -264 0
-145 -265 0
-141 -296 0
-142 -297 0
-143 -298 0
-144 -299 0
-145 -300 0
-141 -336 0
-142 -337 0
-143 -338 0
-144 -339 0
-145 -340 0
-141 -341 0
-142 -342 0
-143 -343 0
-144 -344 0
-145 -345 0
-141 -401 0
-142 -402 0
-143 -403 0
-144 -404 0
-145 -405 0
-146 -206 0
-147 -207 0
-148 -208 0
-149 -209 0
-150 -210 0
-146 -221 0
-147 -222 0
-148 -223 0
-149 -224 0
-150 -225 0
-146 -241 0
-147 -242 0
-148 -243 0
-149 -244 0
-150 -245 0
-146 -326 0
-147 -327 0
-148 -328 0
-149 -329 0
-150 -330 0
-146 -366 0
-147 -367 0
-148 -368 0
-149 -369 0
-150 -370 0
-146 -451 0
-147 -452 0
-148 -453 0
-149 -454 0
-150 -455 0
-151 -186 0
-152 -187 0
-153 -188 0
-154 -189 0
-155 -190 0
-151 -336 0
-152 -337 0
-153 -338 0
-154 -339 0
-155 -340 0
-151 -436 0
-152 -437 0
-153 -438 0
-154 -439 0
-155 -440 0
-151 -451 0
-152 -452 0
-153 -453 0
-154 -454 0
-155 -455 0
-156 -196 0
-157 -197 0
-158 -198 0
-159 -199 0
-160 -200 0
-156 -301 0
-157 -302 0
-158 -303 0
-159 -304 0
-160 -305 0
-161 -186 0
-162 -187 0
-163 -188 0
-164 -189 0
-165 -190 0
-161 -251 0
-162 -252 0
-163 -253 0
-164 -254 0
-165 -255 0
-161 -286 0
-162 -287 0
-163 -288 0
-164 -289 0
-165 -290 0
-161 -351 0
-162 -352 0
-163 -353 0
-164 -354 0
-165 -355 0
-161 -361 0
-162 -362 0
-163 -363 0
-164 -364 0
-165 -365 0
-161 -421 0
-162 -422 0
-163 -423 0
-164 -424 0
-165 -425 0
-161 -451 0
-162 -452 0
-163 -453 0
-164 -454 0
-165 -455 0
-161 -461 0
-162 -462 0
-163 -463 0
-164 -464 0
-165 -465 0
-166 -191 0
-167 -192 0
-168 -193 0
-169 -194 0
-170 -195 0
-166 -196 0
-167 -197 0
-168 -198 0
-169 -199 0
-170 -200 0
-166 -251 0
-167 -252 0
-168 -253 0
-169 -254 0
-170 -255 0
-166 -256 0
-167 -257 0
-168 -258 0
-169 -259 0
-170 -260 0
-166 -276 0
-167 -277 0
-168 -278 0
-169 -279 0
-170 -280 0
-166 -331 0
-167 -332 0
-168 -333 0
-169 -334 0
-170 -335 0
-166 -371 0
-167 -372 0
-168 -373 0
-169 -374 0
-170 -375 0
-166 -401 0
-167 -402 0
-168 -403 0
-169 -404 0
-170 -405 0
-171 -351 0
-172 -352 0
-173 -353 0
-174 -354 0
-175 -355 0
-171 -431 0
-172 -432 0
-173 -433 0
-174 -434 0
-175 -435 0
-171 -436 0
-172 -437 0
-173 -438 0
-174 -439 0
-175 -440 0
-171 -476 0
-172 -477 0
-173 -478 0
-174 -479 0
-175 -480 0
-176 -361 0
-177 -362 0
-178 -363 0
-179 -364 0
-180 -365 0
-176 -396 0
-177 -397 0
-178 -398 0
-179 -399 0
-180 -400 0
-176 -406 0
-177 -407 0
-178 -408 0
-179 -409 0
-180 -410 0
-176 -486 0
-177 -487 0
-178 -488 0
-179 -489 0
-180 -490 0
-181 -261 0
-182 -262 0
-183 -263 0
-184 -264 0
-185 -265 0
-181 -316 0
-182 -317 0
-183 -318 0
-184 -319 0
-185 -320 0
-181 -441 0
-182 -442 0
-183 -443 0
-184 -444 0
-185 -445 0
-181 -446 0
-182 -447 0
-183 -448 0
-184 -449 0
-185 -450 0
-186 -256 0
-187 -257 0
-188 -258 0
-189 -259 0
-190 -260 0
-186 -391 0
-187 -392 0
-188 -393 0
-189 -394 0
-190 -395 0
-191 -266 0
-192 -267 0
-193 -268 0
-194 -269 0
-195 -270 0
-191 -321 0
-192 -322 0
-193 -323 0
-194 -324 0
-195 -325 0
-191 -366 0
-192 -367 0
-193 -368 0
-194 -369 0
-195 -370 0
-191 -421 0
-192 -422 0
-193 -423 0
-194 -424 0
-195 -425 0
-191 -431 0
-192 -432 0
-193 -433 0
-194 -434 0
-195 -435 0
-191 -446 0
-192 -447 0
-193 -448 0
-194 -449 0
-195 -450 0
-191 -481 0
-192 -482 0
-193 -483 0
-194 -484 0
-195 -485 0
-196 -241 0
-197 -242 0
-198 -243 0
-199 -244 0
-200 -245 0
-201 -261 0
-202 -262 0
-203 -263 0
-204 -264 0
-205 -265 0
-201 -316 0
-202 -317 0
-203 -318 0
-204 -319 0
-205 -320 0
-201 -376 0
-202 -377 0
-203 -378 0
-204 -379 0
-205 -380 0
-201 -441 0
-202 -442 0
-203 -443 0
-204 -444 0
-205 -445 0
-201 -491 0
-202 -492 0
-203 -493 0
-204 -494 0
-205 -495 0
-206 -366 0
-207 -367 0
-208 -368 0
-209 -369 0
-210 -370 0
-206 -451 0
-207 -452 0
-208 -453 0
-209 -454 0
-210 -455 0
-206 -466 0
-207 -467 0
-208 -468 0
-209 -469 0
-210 -470 0
-211 -246 0
-212 -247 0
-213 -248 0
-214 -249 0
-215 -250 0
-211 -351 0
-212 -352 0
-213 -353 0
-214 -354 0
-215 -355 0
-211 -491 0
-212 -492 0
-213 -493 0
-214 -494 0
-215 -495 0
-216 -241 0
-217 -242 0
-218 -243 0
-219 -244 0
-220 -245 0
-216 -326 0
-217 -327 0
-218 -328 0
-219 -329 0
-220 -330 0
-216 -391 0
-217 -392 0
-218 -393 0
-219 -394 0
-220 -395 0
-216 -466 0
-217 -467 0
-218 -468 0
-219 -469 0
-220 -470 0
-221 -321 0
-222 -322 0
-223 -323 0
-224 -324 0
-225 -325 0
-226 -271 0
-227 -272 0
-228 -273 0
-229 -274 0
-230 -275 0
-226 -431 0
-227 -432 0
-228 -433 0
-229 -434 0
-230 -435 0
-231 -271 0
-232 -272 0
-233 -273 0
-234 -274 0
-235 -275 0
-231 -436 0
-232 -437 0
-233 -438 0
-234 -439 0
-235 -440 0
-236 -286 0
-237 -287 0
-238 -288 0
-239 -289 0
-240 -290 0
-236 -346 0
-237 -347 0
-238 -348 0
-239 -349 0
-240 -350 0
-236 -386 0
-237 -387 0
-238 -388 0
-239 -389 0
-240 -390 0
-236 -426 0
-237 -427 0
-238 -428 0
-239 -429 0
-240 -430 0
-241 -306 0
-242 -307 0
-243 -308 0
-244 -309 0
-245 -310 0
-241 -326 0
-242 -327 0
-243 -328 0
-244 -329 0
-245 -330 0
-241 -346 0
-242 -347 0
-243 -348 0
-244 -349 0
-245 -350 0
-241 -351 0
-242 -352 0
-243 -353 0
-244 -354 0
-245 -355 0
-241 -396 0
-242 -397 0
-243 -398 0
-244 -399 0
-245 -400 0
-241 -481 0
-242 -482 0
-243 -483 0
-244 -484 0
-245 -485 0
-241 -491 0
-242 -492 0
-243 -493 0
-244 -494 0
-245 -495 0
-241 -496 0
-242 -497 0
-243 -498 0
-244 -499 0
-245 -500 0
-246 -286 0
-247 -287 0
-248 -288 0
-249 -289 0
-250 -290 0
-246 -301 0
-247 -302 0
-248 -303 0
-249 -304 0
-250 -305 0
-246 -306 0
-247 -307 0
-248 -308 0
-249 -309 0
-250 -310 0
-246 -321 0
-247 -322 0
-248 -323 0
-249 -324 0
-250 -325 0
-246 -356 0
-247 -357 0
-248 -358 0
-249 -359 0
-250 -360 0
-246 -426 0
-247 -427 0
-248 -428 0
-249 -429 0
-250 -430 0
-246 -436 0
-247 -437 0
-248 -438 0
-249 -439 0
-250 -440 0
-246 -441 0
-247 -442 0
-248 -443 0
-249 -444 0
-250 -445 0
-246 -456 0
-247 -457 0
-248 -458 0
-249 -459 0
-250 -460 0
-251 -286 0
-252 -287 0
-253 -288 0
-254 -289 0
-255 -290 0
-251 -291 0
-252 -292 0
-253 -293 0
-254 -294 0
-255 -295 0
-251 -316 0
-252 -317 0
-253 -318 0
-254 -319 0
-255 -320 0
-251 -376 0
-252 -377 0
-253 -378 0
-254 -379 0
-255 -380 0
-251 -401 0
-252 -402 0
-253 -403 0
-254 -404 0
-255 -405 0
-251 -411 0
-252 -412 0
-253 -413 0
-254 -414 0
-255 -415 0
-256 -306 0
-257 -307 0
-258 -308 0
-259 -309 0
-260 -310 0
-256 -351 0
-257 -352 0
-258 -353 0
-259 -354 0
-260 -355 0
-256 -476 0
-257 -477 0
-258 -478 0
-259 -479 0
-260 -480 0
-261 -351 0
-262 -352 0
-263 -353 0
-264 -354 0
-265 -355 0
-261 -401 0
-262 -402 0
-263 -403 0
-264 -404 0
-265 -405 0
-261 -406 0
-262 -407 0
-263 -408 0
-264 -409 0
-265 -410 0
-261 -476 0
-262 -477 0
-263 -478 0
-264 -479 0
-265 -480 0
-266 -326 0
-267 -327 0
-268 -328 0
-269 -329 0
-270 -330 0
-266 -331 0
-267 -332 0
-268 -333 0
-269 -334 0
-270 -335 0
-266 -401 0
-267 -402 0
-268 -403 0
-269 -404 0
-270 -405 0
-266 -411 0
-267 -412 0
-268 -413 0
-269 -414 0
-270 -415 0
-266 -461 0
-267 -462 0
-268 -463 0
-269 -464 0
-270 -465 0
-266 -471 0
-267 -472 0
-268 -473 0
-269 -474 0
-270 -475 0
-266 -476 0
-267 -477 0
-268 -478 0
-269 -479 0
-270 -480 0
-271 -331 0
-272 -332 0
-273 -333 0
-274 -334 0
-275 -335 0
-271 -371 0
-272 -372 0
-273 -373 0
-274 -374 0
-275 -375 0
-271 -376 0
-272 -377 0
-273 -378 0
-274 -379 0
-275 -380 0
-271 -396 0
-272 -397 0
-273 -398 0
-274 -399 0
-275 -400 0
-276 -301 0
-277 -302 0
-278 -303 0
-279 -304 0
-280 -305 0
-276 -496 0
-277 -497 0
-278 -498 0
-279 -499 0
-280 -500 0
-281 -321 0
-282 -322 0
-283 -323 0
-284 -324 0
-285 -325 0
-281 -366 0
-282 -367 0
-283 -368 0
-284 -369 0
-285 -370 0
-281 -421 0
-282 -422 0
-283 -423 0
-284 -424 0
-285 -425 0
-281 -451 0
-282 -452 0
-283 -453 0
-284 -454 0
-285 -455 0
-281 -496 0
-282 -497 0
-283 -498 0
-284 -499 0
-285 -500 0
-286 -356 0
-287 -357 0
-288 -358 0
-289 -359 0
-290 -360 0
-286 -426 0
-287 -427 0
-288 -428 0
-289 -429 0
-290 -430 0
-286 -451 0
-287 -452 0
-288 -453 0
-289 -454 0
-290 -455 0
-291 -391 0
-292 -392 0
-293 -393 0
-294 -394 0
-295 -395 0
-291 -406 0
-292 -407 0
-293 -408 0
-294 -409 0
-295 -410 0
-291 -436 0
-292 -437 0
-293 -438 0
-294 -439 0
-295 -440 0
-291 -481 0
-292 -482 0
-293 -483 0
-294 -484 0
-295 -485 0
-296 -446 0
-297 -447 0
-298 -448 0
-299 -449 0
-300 -450 0
-301 -396 0
-302 -397 0
-303 -398 0
-304 -399 0
-305 -400 0
-301 -431 0
-302 -432 0
-303 -433 0
-304 -434 0
-305 -435 0
-301 -466 0
-302 -467 0
-303 -468 0
-304 -469 0
-305 -470 0
-306 -416 0
-307 -417 0
-308 -418 0
-309 -419 0
-310 -420 0
-306 -466 0
-307 -467 0
-308 -468 0
-309 -469 0
-310 -470 0
-311 -461 0
-312 -462 0
-313 -463 0
-314 -464 0
-315 -465 0
-311 -466 0
-312 -467 0
-313 -468 0
-314 -469 0
-315 -470 0
-316 -341 0
-317 -342 0
-318 -343 0
-319 -344 0
-320 -345 0
-316 -476 0
-317 -477 0
-318 -478 0
-319 -479 0
-320 -480 0
-321 -396 0
-322 -397 0
-323 -398 0
-324 -399 0
-325 -400 0
-321 -456 0
-322 -457 0
-323 -458 0
-324 -459 0
-325 -460 0
-321 -471 0
-322 -472 0
-323 -473 0
-324 -474 0
-325 -475 0
-326 -351 0
-327 -352 0
-328 -353 0
-329 -354 0
-330 -355 0
-326 -376 0
-327 -377 0
-328 -378 0
-329 -379 0
-330 -380 0
-326 -471 0
-327 -472 0
-328 -473 0
-329 -474 0
-330 -475 0
-326 -481 0
-327 -482 0
-328 -483 0
-329 -484 0
-330 -485 0
-326 -496 0
-327 -497 0
-328 -498 0
-329 -499 0
-330 -500 0
-331 -411 0
-332 -412 0
-333 -413 0
-334 -414 0
-335 -415 0
-331 -486 0
-332 -487 0
-333 -488 0
-334 -489 0
-335 -490 0
-336 -391 0
-337 -392 0
-338 -393 0
-339 -394 0
-340 -395 0
-336 -461 0
-337 -462 0
-338 -463 0
-339 -464 0
-340 -465 0
-341 -451 0
-342 -452 0
-343 -453 0
-344 -454 0
-345 -455 0
-346 -371 0
-347 -372 0
-348 -373 0
-349 -374 0
-350 -375 0
-346 -406 0
-347 -407 0
-348 -408 0
-349 -409 0
-350 -410 0
-351 -396 0
-352 -397 0
-353 -398 0
-354 -399 0
-355 -400 0
-351 -401 0
-352 -402 0
-353 -403 0
-354 -404 0
-355 -405 0
-351 -451 0
-352 -452 0
-353 -453 0
-354 -454 0
-355 -455 0
-351 -481 0
-352 -482 0
-353 -483 0
-354 -484 0
-355 -485 0
-361 -481 0
-362 -482 0
-363 -483 0
-364 -484 0
-365 -485 0
-371 -396 0
-372 -397 0
-373 -398 0
-374 -399 0
-375 -400 0
-371 -416 0
-372 -417 0
-373 -418 0
-374 -419 0
-375 -420 0
-371 -461 0
-372 -462 0
-373 -463 0
-374 -464 0
-375 -465 0
-376 -421 0
-377 -422 0
-378 -423 0
-379 -424 0
-380 -425 0
-376 -441 0
-377 -442 0
-378 -443 0
-379 -444 0
-380 -445 0
-381 -441 0
-382 -442 0
-383 -443 0
-384 -444 0
-385 -445 0
-381 -491 0
-382 -492 0
-383 -493 0
-384 -494 0
-385 -495 0
-386 -436 0
-387 -437 0
-388 -438 0
-389 -439 0
-390 -440 0
-386 -461 0
-387 -462 0
-388 -463 0
-389 -464 0
-390 -465 0
-391 -461 0
-392 -462 0
-393 -463 0
-394 -464 0
-395 -465 0
-391 -486 0
-392 -487 0
-393 -488 0
-394 -489 0
-395 -490 0
-401 -426 0
-402 -427 0
-403 -428 0
-404 -429 0
-405 -430 0
-411 -466 0
-412 -467 0
-413 -468 0
-414 -469 0
-415 -470 0
-416 -466 0
-417 -467 0
-418 -468 0
-419 -469 0
-420 -470 0
-426 -461 0
-427 -462 0
-428 -463 0
-429 -464 0
-430 -465 0
-426 -466 0
-427 -467 0
-428 -468 0
-429 -469 0
-430 -470 0
-426 -471 0
-427 -472 0
-428 -473 0
-429 -474 0
-430 -475 0
-426 -481 0
-427 -482 0
-428 -483 0
-429 -484 0
-430 -485 0
-436 -466 0
-437 -467 0
-438 -468 0
-439 -469 0
-440 -470 0
-436 -481 0
-437 -482 0
-438 -483 0
-439 -484 0
-440 -485 0
-441 -491 0
-442 -492 0
-443 -493 0
-444 -494 0
-445 -495 0
-446 -481 0
-447 -482 0
-448 -483 0
-449 -484 0
-450 -485 0
-451 -491 0
-452 -492 0
-453 -493 0
-454 -494 0
-455 -495 0
